NAME : berlin52.opt.tour
COMMENT : 7544.36590190409  #   Population: 100   Iteration: 5000   Elitism Ratio: 0.09   Mutation Ratio: 0.09   Crossover Ratio: 0.95
TYPE : TOUR
DIMENSION : 52
TOUR_SECTION
22
1
49
32
45
19
41
8
9
10
43
33
51
11
52
14
13
47
26
27
28
12
25
4
6
15
5
24
48
38
37
40
39
36
35
34
44
46
16
29
50
20
23
30
2
7
42
21
17
3
18
31
-1
EOF
